language Essence 1.3

letting class be
        function(1 --> 1, 2 --> 2, 3 --> 1, 4 --> 1, 5 --> 8, 6 --> 2, 7 --> 9, 8 --> 5, 9 --> 1, 10 --> 4, 11 --> 2,
                 12 --> 1, 13 --> 1, 14 --> 4, 15 --> 4, 16 --> 7, 17 --> 6, 18 --> 7, 19 --> 8, 20 --> 1, 21 --> 2,
                 22 --> 7, 23 --> 5, 24 --> 4, 25 --> 4, 26 --> 4, 27 --> 3, 28 --> 6, 29 --> 4)
letting deck_length be 64
letting deck_width be 88
letting length be
        function(1 --> 55, 2 --> 4, 3 --> 64, 4 --> 30, 5 --> 41, 6 --> 8, 7 --> 16, 8 --> 34, 9 --> 9, 10 --> 38,
                 11 --> 21, 12 --> 58, 13 --> 16, 14 --> 37, 15 --> 18, 16 --> 7, 17 --> 5, 18 --> 32, 19 --> 45,
                 20 --> 59, 21 --> 37, 22 --> 28, 23 --> 29, 24 --> 58, 25 --> 15, 26 --> 7, 27 --> 14, 28 --> 55,
                 29 --> 61)
letting n_classes be 9
letting n_containers be 29
letting separation be function({7, 9} --> 61)
letting width be
        function(1 --> 4, 2 --> 2, 3 --> 37, 4 --> 1, 5 --> 1, 6 --> 1, 7 --> 1, 8 --> 1, 9 --> 1, 10 --> 1, 11 --> 1,
                 12 --> 1, 13 --> 1, 14 --> 1, 15 --> 1, 16 --> 1, 17 --> 1, 18 --> 1, 19 --> 1, 20 --> 2, 21 --> 1,
                 22 --> 1, 23 --> 1, 24 --> 1, 25 --> 1, 26 --> 2, 27 --> 1, 28 --> 1, 29 --> 36)
